; benchmark generated from python API
(set-info :status unknown)
(declare-fun cell_1_3 () Int)
(declare-fun cell_1_4 () Int)
(declare-fun cell_2_1 () Int)
(declare-fun cell_3_7 () Int)
(declare-fun cell_4_6 () Int)
(declare-fun cell_5_9 () Int)
(declare-fun cell_6_2 () Int)
(declare-fun cell_7_5 () Int)
(declare-fun cell_8_8 () Int)
(declare-fun cell_9_3 () Int)
(declare-fun cell_1_1 () Int)
(declare-fun cell_3_1 () Int)
(declare-fun cell_4_1 () Int)
(declare-fun cell_5_1 () Int)
(declare-fun cell_6_1 () Int)
(declare-fun cell_7_1 () Int)
(declare-fun cell_8_1 () Int)
(declare-fun cell_9_1 () Int)
(declare-fun cell_1_2 () Int)
(declare-fun cell_2_2 () Int)
(declare-fun cell_3_2 () Int)
(declare-fun cell_4_2 () Int)
(declare-fun cell_5_2 () Int)
(declare-fun cell_7_2 () Int)
(declare-fun cell_8_2 () Int)
(declare-fun cell_9_2 () Int)
(declare-fun cell_2_3 () Int)
(declare-fun cell_3_3 () Int)
(declare-fun cell_4_3 () Int)
(declare-fun cell_5_3 () Int)
(declare-fun cell_6_3 () Int)
(declare-fun cell_7_3 () Int)
(declare-fun cell_8_3 () Int)
(declare-fun cell_2_4 () Int)
(declare-fun cell_3_4 () Int)
(declare-fun cell_4_4 () Int)
(declare-fun cell_5_4 () Int)
(declare-fun cell_6_4 () Int)
(declare-fun cell_7_4 () Int)
(declare-fun cell_8_4 () Int)
(declare-fun cell_9_4 () Int)
(declare-fun cell_1_5 () Int)
(declare-fun cell_2_5 () Int)
(declare-fun cell_3_5 () Int)
(declare-fun cell_4_5 () Int)
(declare-fun cell_5_5 () Int)
(declare-fun cell_6_5 () Int)
(declare-fun cell_8_5 () Int)
(declare-fun cell_9_5 () Int)
(declare-fun cell_1_6 () Int)
(declare-fun cell_2_6 () Int)
(declare-fun cell_3_6 () Int)
(declare-fun cell_5_6 () Int)
(declare-fun cell_6_6 () Int)
(declare-fun cell_7_6 () Int)
(declare-fun cell_8_6 () Int)
(declare-fun cell_9_6 () Int)
(declare-fun cell_1_7 () Int)
(declare-fun cell_2_7 () Int)
(declare-fun cell_4_7 () Int)
(declare-fun cell_5_7 () Int)
(declare-fun cell_6_7 () Int)
(declare-fun cell_7_7 () Int)
(declare-fun cell_8_7 () Int)
(declare-fun cell_9_7 () Int)
(declare-fun cell_1_8 () Int)
(declare-fun cell_2_8 () Int)
(declare-fun cell_3_8 () Int)
(declare-fun cell_4_8 () Int)
(declare-fun cell_5_8 () Int)
(declare-fun cell_6_8 () Int)
(declare-fun cell_7_8 () Int)
(declare-fun cell_9_8 () Int)
(declare-fun cell_1_9 () Int)
(declare-fun cell_2_9 () Int)
(declare-fun cell_3_9 () Int)
(declare-fun cell_4_9 () Int)
(declare-fun cell_6_9 () Int)
(declare-fun cell_7_9 () Int)
(declare-fun cell_8_9 () Int)
(declare-fun cell_9_9 () Int)
(assert
 (= cell_1_3 2))
(assert
 (= cell_1_4 1))
(assert
 (= cell_2_1 1))
(assert
 (= cell_3_7 1))
(assert
 (= cell_4_6 1))
(assert
 (= cell_5_9 1))
(assert
 (= cell_6_2 1))
(assert
 (= cell_7_5 1))
(assert
 (= cell_8_8 1))
(assert
 (= cell_9_3 1))
(assert
 (let (($x2750 (= cell_1_1 9)))
 (let (($x3200 (= cell_1_1 8)))
 (let (($x4656 (= cell_1_1 7)))
 (let (($x4976 (= cell_1_1 6)))
 (let (($x402 (= cell_1_1 5)))
 (let (($x9305 (= cell_1_1 4)))
 (let (($x6387 (= cell_1_1 3)))
 (let (($x7320 (= cell_1_1 2)))
 (let (($x5575 (= cell_1_1 1)))
 (or $x5575 $x7320 $x6387 $x9305 $x402 $x4976 $x4656 $x3200 $x2750)))))))))))
(assert
 (let (($x8898 (= cell_2_1 1)))
 (or $x8898 (= cell_2_1 2) (= cell_2_1 3) (= cell_2_1 4) (= cell_2_1 5) (= cell_2_1 6) (= cell_2_1 7) (= cell_2_1 8) (= cell_2_1 9))))
(assert
 (let (($x9740 (= cell_3_1 9)))
 (let (($x6975 (= cell_3_1 8)))
 (let (($x602 (= cell_3_1 7)))
 (let (($x8324 (= cell_3_1 6)))
 (let (($x6267 (= cell_3_1 5)))
 (let (($x8370 (= cell_3_1 4)))
 (let (($x1549 (= cell_3_1 3)))
 (let (($x2516 (= cell_3_1 2)))
 (let (($x6565 (= cell_3_1 1)))
 (or $x6565 $x2516 $x1549 $x8370 $x6267 $x8324 $x602 $x6975 $x9740)))))))))))
(assert
 (let (($x4130 (= cell_4_1 9)))
 (let (($x5032 (= cell_4_1 8)))
 (let (($x582 (= cell_4_1 7)))
 (let (($x3072 (= cell_4_1 6)))
 (let (($x2636 (= cell_4_1 5)))
 (let (($x4846 (= cell_4_1 4)))
 (let (($x2357 (= cell_4_1 3)))
 (let (($x5267 (= cell_4_1 2)))
 (let (($x2709 (= cell_4_1 1)))
 (or $x2709 $x5267 $x2357 $x4846 $x2636 $x3072 $x582 $x5032 $x4130)))))))))))
(assert
 (let (($x5825 (= cell_5_1 9)))
 (let (($x2763 (= cell_5_1 8)))
 (let (($x4040 (= cell_5_1 7)))
 (let (($x8348 (= cell_5_1 6)))
 (let (($x6346 (= cell_5_1 5)))
 (let (($x2106 (= cell_5_1 4)))
 (let (($x5663 (= cell_5_1 3)))
 (let (($x7549 (= cell_5_1 2)))
 (let (($x1006 (= cell_5_1 1)))
 (or $x1006 $x7549 $x5663 $x2106 $x6346 $x8348 $x4040 $x2763 $x5825)))))))))))
(assert
 (let (($x3405 (= cell_6_1 9)))
 (let (($x147 (= cell_6_1 8)))
 (let (($x16 (= cell_6_1 7)))
 (let (($x2174 (= cell_6_1 6)))
 (let (($x8947 (= cell_6_1 5)))
 (let (($x3638 (= cell_6_1 4)))
 (let (($x8692 (= cell_6_1 3)))
 (let (($x10126 (= cell_6_1 2)))
 (let (($x3141 (= cell_6_1 1)))
 (or $x3141 $x10126 $x8692 $x3638 $x8947 $x2174 $x16 $x147 $x3405)))))))))))
(assert
 (let (($x9385 (= cell_7_1 9)))
 (let (($x8773 (= cell_7_1 8)))
 (let (($x4024 (= cell_7_1 7)))
 (let (($x8491 (= cell_7_1 6)))
 (let (($x852 (= cell_7_1 5)))
 (let (($x2886 (= cell_7_1 4)))
 (let (($x5777 (= cell_7_1 3)))
 (let (($x3737 (= cell_7_1 2)))
 (let (($x5199 (= cell_7_1 1)))
 (or $x5199 $x3737 $x5777 $x2886 $x852 $x8491 $x4024 $x8773 $x9385)))))))))))
(assert
 (let (($x3629 (= cell_8_1 9)))
 (let (($x10098 (= cell_8_1 8)))
 (let (($x6441 (= cell_8_1 7)))
 (let (($x5409 (= cell_8_1 6)))
 (let (($x3499 (= cell_8_1 5)))
 (let (($x1743 (= cell_8_1 4)))
 (let (($x4516 (= cell_8_1 3)))
 (let (($x10160 (= cell_8_1 2)))
 (let (($x8383 (= cell_8_1 1)))
 (or $x8383 $x10160 $x4516 $x1743 $x3499 $x5409 $x6441 $x10098 $x3629)))))))))))
(assert
 (let (($x1610 (= cell_9_1 9)))
 (let (($x1113 (= cell_9_1 8)))
 (let (($x2797 (= cell_9_1 7)))
 (let (($x2092 (= cell_9_1 6)))
 (let (($x435 (= cell_9_1 5)))
 (let (($x7558 (= cell_9_1 4)))
 (let (($x9835 (= cell_9_1 3)))
 (let (($x2715 (= cell_9_1 2)))
 (let (($x8386 (= cell_9_1 1)))
 (or $x8386 $x2715 $x9835 $x7558 $x435 $x2092 $x2797 $x1113 $x1610)))))))))))
(assert
 (let (($x6109 (= cell_1_2 9)))
 (let (($x5854 (= cell_1_2 8)))
 (let (($x8621 (= cell_1_2 7)))
 (let (($x3177 (= cell_1_2 6)))
 (let (($x9455 (= cell_1_2 5)))
 (let (($x7699 (= cell_1_2 4)))
 (let (($x1809 (= cell_1_2 3)))
 (let (($x6366 (= cell_1_2 2)))
 (let (($x1406 (= cell_1_2 1)))
 (or $x1406 $x6366 $x1809 $x7699 $x9455 $x3177 $x8621 $x5854 $x6109)))))))))))
(assert
 (let (($x856 (= cell_2_2 9)))
 (let (($x8218 (= cell_2_2 8)))
 (let (($x3935 (= cell_2_2 7)))
 (let (($x145 (= cell_2_2 6)))
 (let (($x3461 (= cell_2_2 5)))
 (let (($x2215 (= cell_2_2 4)))
 (let (($x6408 (= cell_2_2 3)))
 (let (($x7107 (= cell_2_2 2)))
 (let (($x207 (= cell_2_2 1)))
 (or $x207 $x7107 $x6408 $x2215 $x3461 $x145 $x3935 $x8218 $x856)))))))))))
(assert
 (let (($x416 (= cell_3_2 9)))
 (let (($x1022 (= cell_3_2 8)))
 (let (($x6817 (= cell_3_2 7)))
 (let (($x5313 (= cell_3_2 6)))
 (let (($x8671 (= cell_3_2 5)))
 (let (($x186 (= cell_3_2 4)))
 (let (($x846 (= cell_3_2 3)))
 (let (($x1687 (= cell_3_2 2)))
 (let (($x5404 (= cell_3_2 1)))
 (or $x5404 $x1687 $x846 $x186 $x8671 $x5313 $x6817 $x1022 $x416)))))))))))
(assert
 (let (($x7941 (= cell_4_2 9)))
 (let (($x3666 (= cell_4_2 8)))
 (let (($x2811 (= cell_4_2 7)))
 (let (($x3050 (= cell_4_2 6)))
 (let (($x7029 (= cell_4_2 5)))
 (let (($x3954 (= cell_4_2 4)))
 (let (($x8114 (= cell_4_2 3)))
 (let (($x1521 (= cell_4_2 2)))
 (let (($x134 (= cell_4_2 1)))
 (or $x134 $x1521 $x8114 $x3954 $x7029 $x3050 $x2811 $x3666 $x7941)))))))))))
(assert
 (let (($x1751 (= cell_5_2 9)))
 (let (($x1370 (= cell_5_2 8)))
 (let (($x5157 (= cell_5_2 7)))
 (let (($x5007 (= cell_5_2 6)))
 (let (($x8176 (= cell_5_2 5)))
 (let (($x8767 (= cell_5_2 4)))
 (let (($x5336 (= cell_5_2 3)))
 (let (($x6291 (= cell_5_2 2)))
 (let (($x6769 (= cell_5_2 1)))
 (or $x6769 $x6291 $x5336 $x8767 $x8176 $x5007 $x5157 $x1370 $x1751)))))))))))
(assert
 (let (($x10093 (= cell_6_2 1)))
 (or $x10093 (= cell_6_2 2) (= cell_6_2 3) (= cell_6_2 4) (= cell_6_2 5) (= cell_6_2 6) (= cell_6_2 7) (= cell_6_2 8) (= cell_6_2 9))))
(assert
 (let (($x4218 (= cell_7_2 9)))
 (let (($x7886 (= cell_7_2 8)))
 (let (($x3602 (= cell_7_2 7)))
 (let (($x3901 (= cell_7_2 6)))
 (let (($x6372 (= cell_7_2 5)))
 (let (($x4487 (= cell_7_2 4)))
 (let (($x8008 (= cell_7_2 3)))
 (let (($x6429 (= cell_7_2 2)))
 (let (($x5510 (= cell_7_2 1)))
 (or $x5510 $x6429 $x8008 $x4487 $x6372 $x3901 $x3602 $x7886 $x4218)))))))))))
(assert
 (let (($x1905 (= cell_8_2 9)))
 (let (($x4698 (= cell_8_2 8)))
 (let (($x2239 (= cell_8_2 7)))
 (let (($x8340 (= cell_8_2 6)))
 (let (($x7735 (= cell_8_2 5)))
 (let (($x2448 (= cell_8_2 4)))
 (let (($x4265 (= cell_8_2 3)))
 (let (($x4820 (= cell_8_2 2)))
 (let (($x4264 (= cell_8_2 1)))
 (or $x4264 $x4820 $x4265 $x2448 $x7735 $x8340 $x2239 $x4698 $x1905)))))))))))
(assert
 (let (($x6363 (= cell_9_2 9)))
 (let (($x2084 (= cell_9_2 8)))
 (let (($x9062 (= cell_9_2 7)))
 (let (($x709 (= cell_9_2 6)))
 (let (($x3655 (= cell_9_2 5)))
 (let (($x8315 (= cell_9_2 4)))
 (let (($x3702 (= cell_9_2 3)))
 (let (($x861 (= cell_9_2 2)))
 (let (($x2492 (= cell_9_2 1)))
 (or $x2492 $x861 $x3702 $x8315 $x3655 $x709 $x9062 $x2084 $x6363)))))))))))
(assert
 (let (($x6645 (= cell_1_3 2)))
 (or (= cell_1_3 1) $x6645 (= cell_1_3 3) (= cell_1_3 4) (= cell_1_3 5) (= cell_1_3 6) (= cell_1_3 7) (= cell_1_3 8) (= cell_1_3 9))))
(assert
 (let (($x2977 (= cell_2_3 9)))
 (let (($x7689 (= cell_2_3 8)))
 (let (($x9010 (= cell_2_3 7)))
 (let (($x705 (= cell_2_3 6)))
 (let (($x4145 (= cell_2_3 5)))
 (let (($x6026 (= cell_2_3 4)))
 (let (($x6633 (= cell_2_3 3)))
 (let (($x3068 (= cell_2_3 2)))
 (let (($x8193 (= cell_2_3 1)))
 (or $x8193 $x3068 $x6633 $x6026 $x4145 $x705 $x9010 $x7689 $x2977)))))))))))
(assert
 (let (($x3757 (= cell_3_3 9)))
 (let (($x6608 (= cell_3_3 8)))
 (let (($x7859 (= cell_3_3 7)))
 (let (($x1982 (= cell_3_3 6)))
 (let (($x1644 (= cell_3_3 5)))
 (let (($x4778 (= cell_3_3 4)))
 (let (($x7566 (= cell_3_3 3)))
 (let (($x276 (= cell_3_3 2)))
 (let (($x3204 (= cell_3_3 1)))
 (or $x3204 $x276 $x7566 $x4778 $x1644 $x1982 $x7859 $x6608 $x3757)))))))))))
(assert
 (let (($x2812 (= cell_4_3 9)))
 (let (($x8495 (= cell_4_3 8)))
 (let (($x868 (= cell_4_3 7)))
 (let (($x3538 (= cell_4_3 6)))
 (let (($x9679 (= cell_4_3 5)))
 (let (($x7311 (= cell_4_3 4)))
 (let (($x7480 (= cell_4_3 3)))
 (let (($x7742 (= cell_4_3 2)))
 (let (($x8015 (= cell_4_3 1)))
 (or $x8015 $x7742 $x7480 $x7311 $x9679 $x3538 $x868 $x8495 $x2812)))))))))))
(assert
 (let (($x9052 (= cell_5_3 9)))
 (let (($x2549 (= cell_5_3 8)))
 (let (($x7287 (= cell_5_3 7)))
 (let (($x889 (= cell_5_3 6)))
 (let (($x5934 (= cell_5_3 5)))
 (let (($x9704 (= cell_5_3 4)))
 (let (($x7091 (= cell_5_3 3)))
 (let (($x7398 (= cell_5_3 2)))
 (let (($x1234 (= cell_5_3 1)))
 (or $x1234 $x7398 $x7091 $x9704 $x5934 $x889 $x7287 $x2549 $x9052)))))))))))
(assert
 (let (($x5502 (= cell_6_3 9)))
 (let (($x6253 (= cell_6_3 8)))
 (let (($x1495 (= cell_6_3 7)))
 (let (($x5604 (= cell_6_3 6)))
 (let (($x5080 (= cell_6_3 5)))
 (let (($x2398 (= cell_6_3 4)))
 (let (($x2496 (= cell_6_3 3)))
 (let (($x6282 (= cell_6_3 2)))
 (let (($x5035 (= cell_6_3 1)))
 (or $x5035 $x6282 $x2496 $x2398 $x5080 $x5604 $x1495 $x6253 $x5502)))))))))))
(assert
 (let (($x9464 (= cell_7_3 9)))
 (let (($x5384 (= cell_7_3 8)))
 (let (($x9230 (= cell_7_3 7)))
 (let (($x2885 (= cell_7_3 6)))
 (let (($x8096 (= cell_7_3 5)))
 (let (($x844 (= cell_7_3 4)))
 (let (($x8480 (= cell_7_3 3)))
 (let (($x6683 (= cell_7_3 2)))
 (let (($x10127 (= cell_7_3 1)))
 (or $x10127 $x6683 $x8480 $x844 $x8096 $x2885 $x9230 $x5384 $x9464)))))))))))
(assert
 (let (($x4732 (= cell_8_3 9)))
 (let (($x8682 (= cell_8_3 8)))
 (let (($x4565 (= cell_8_3 7)))
 (let (($x5140 (= cell_8_3 6)))
 (let (($x3354 (= cell_8_3 5)))
 (let (($x3705 (= cell_8_3 4)))
 (let (($x6492 (= cell_8_3 3)))
 (let (($x9563 (= cell_8_3 2)))
 (let (($x8367 (= cell_8_3 1)))
 (or $x8367 $x9563 $x6492 $x3705 $x3354 $x5140 $x4565 $x8682 $x4732)))))))))))
(assert
 (let (($x8202 (= cell_9_3 1)))
 (or $x8202 (= cell_9_3 2) (= cell_9_3 3) (= cell_9_3 4) (= cell_9_3 5) (= cell_9_3 6) (= cell_9_3 7) (= cell_9_3 8) (= cell_9_3 9))))
(assert
 (let (($x7727 (= cell_1_4 1)))
 (or $x7727 (= cell_1_4 2) (= cell_1_4 3) (= cell_1_4 4) (= cell_1_4 5) (= cell_1_4 6) (= cell_1_4 7) (= cell_1_4 8) (= cell_1_4 9))))
(assert
 (let (($x3011 (= cell_2_4 1)))
 (or $x3011 (= cell_2_4 2) (= cell_2_4 3) (= cell_2_4 4) (= cell_2_4 5) (= cell_2_4 6) (= cell_2_4 7) (= cell_2_4 8) (= cell_2_4 9))))
(assert
 (let (($x3105 (= cell_3_4 9)))
 (let (($x7780 (= cell_3_4 8)))
 (let (($x7943 (= cell_3_4 7)))
 (let (($x7363 (= cell_3_4 6)))
 (let (($x2011 (= cell_3_4 5)))
 (let (($x2804 (= cell_3_4 4)))
 (let (($x6610 (= cell_3_4 3)))
 (let (($x3713 (= cell_3_4 2)))
 (let (($x8393 (= cell_3_4 1)))
 (or $x8393 $x3713 $x6610 $x2804 $x2011 $x7363 $x7943 $x7780 $x3105)))))))))))
(assert
 (let (($x5334 (= cell_4_4 9)))
 (let (($x232 (= cell_4_4 8)))
 (let (($x4387 (= cell_4_4 7)))
 (let (($x6502 (= cell_4_4 6)))
 (let (($x9832 (= cell_4_4 5)))
 (let (($x3636 (= cell_4_4 4)))
 (let (($x9025 (= cell_4_4 3)))
 (let (($x4205 (= cell_4_4 2)))
 (let (($x8161 (= cell_4_4 1)))
 (or $x8161 $x4205 $x9025 $x3636 $x9832 $x6502 $x4387 $x232 $x5334)))))))))))
(assert
 (let (($x618 (= cell_5_4 9)))
 (let (($x7840 (= cell_5_4 8)))
 (let (($x4116 (= cell_5_4 7)))
 (let (($x9906 (= cell_5_4 6)))
 (let (($x10120 (= cell_5_4 5)))
 (let (($x5505 (= cell_5_4 4)))
 (let (($x9088 (= cell_5_4 3)))
 (let (($x6104 (= cell_5_4 2)))
 (let (($x1091 (= cell_5_4 1)))
 (or $x1091 $x6104 $x9088 $x5505 $x10120 $x9906 $x4116 $x7840 $x618)))))))))))
(assert
 (let (($x1104 (= cell_6_4 1)))
 (or $x1104 (= cell_6_4 2) (= cell_6_4 3) (= cell_6_4 4) (= cell_6_4 5) (= cell_6_4 6) (= cell_6_4 7) (= cell_6_4 8) (= cell_6_4 9))))
(assert
 (let (($x9302 (= cell_7_4 9)))
 (let (($x7912 (= cell_7_4 8)))
 (let (($x827 (= cell_7_4 7)))
 (let (($x8474 (= cell_7_4 6)))
 (let (($x6611 (= cell_7_4 5)))
 (let (($x6024 (= cell_7_4 4)))
 (let (($x6892 (= cell_7_4 3)))
 (let (($x4413 (= cell_7_4 2)))
 (let (($x8031 (= cell_7_4 1)))
 (or $x8031 $x4413 $x6892 $x6024 $x6611 $x8474 $x827 $x7912 $x9302)))))))))))
(assert
 (let (($x9676 (= cell_8_4 9)))
 (let (($x8030 (= cell_8_4 8)))
 (let (($x5366 (= cell_8_4 7)))
 (let (($x135 (= cell_8_4 6)))
 (let (($x7479 (= cell_8_4 5)))
 (let (($x591 (= cell_8_4 4)))
 (let (($x7255 (= cell_8_4 3)))
 (let (($x7314 (= cell_8_4 2)))
 (let (($x4098 (= cell_8_4 1)))
 (or $x4098 $x7314 $x7255 $x591 $x7479 $x135 $x5366 $x8030 $x9676)))))))))))
(assert
 (let (($x4227 (= cell_9_4 1)))
 (or $x4227 (= cell_9_4 2) (= cell_9_4 3) (= cell_9_4 4) (= cell_9_4 5) (= cell_9_4 6) (= cell_9_4 7) (= cell_9_4 8) (= cell_9_4 9))))
(assert
 (let (($x1247 (= cell_1_5 9)))
 (let (($x9168 (= cell_1_5 8)))
 (let (($x7982 (= cell_1_5 7)))
 (let (($x5112 (= cell_1_5 6)))
 (let (($x4286 (= cell_1_5 5)))
 (let (($x6360 (= cell_1_5 4)))
 (let (($x5543 (= cell_1_5 3)))
 (let (($x832 (= cell_1_5 2)))
 (let (($x7502 (= cell_1_5 1)))
 (or $x7502 $x832 $x5543 $x6360 $x4286 $x5112 $x7982 $x9168 $x1247)))))))))))
(assert
 (let (($x3315 (= cell_2_5 9)))
 (let (($x9955 (= cell_2_5 8)))
 (let (($x638 (= cell_2_5 7)))
 (let (($x2518 (= cell_2_5 6)))
 (let (($x5425 (= cell_2_5 5)))
 (let (($x1834 (= cell_2_5 4)))
 (let (($x3806 (= cell_2_5 3)))
 (let (($x6657 (= cell_2_5 2)))
 (let (($x1356 (= cell_2_5 1)))
 (or $x1356 $x6657 $x3806 $x1834 $x5425 $x2518 $x638 $x9955 $x3315)))))))))))
(assert
 (let (($x10078 (= cell_3_5 9)))
 (let (($x4726 (= cell_3_5 8)))
 (let (($x3451 (= cell_3_5 7)))
 (let (($x7541 (= cell_3_5 6)))
 (let (($x3034 (= cell_3_5 5)))
 (let (($x10060 (= cell_3_5 4)))
 (let (($x8152 (= cell_3_5 3)))
 (let (($x6071 (= cell_3_5 2)))
 (let (($x8373 (= cell_3_5 1)))
 (or $x8373 $x6071 $x8152 $x10060 $x3034 $x7541 $x3451 $x4726 $x10078)))))))))))
(assert
 (let (($x1216 (= cell_4_5 9)))
 (let (($x3534 (= cell_4_5 8)))
 (let (($x7382 (= cell_4_5 7)))
 (let (($x7961 (= cell_4_5 6)))
 (let (($x46 (= cell_4_5 5)))
 (let (($x8107 (= cell_4_5 4)))
 (let (($x1383 (= cell_4_5 3)))
 (let (($x2613 (= cell_4_5 2)))
 (let (($x5306 (= cell_4_5 1)))
 (or $x5306 $x2613 $x1383 $x8107 $x46 $x7961 $x7382 $x3534 $x1216)))))))))))
(assert
 (let (($x9526 (= cell_5_5 9)))
 (let (($x3948 (= cell_5_5 8)))
 (let (($x878 (= cell_5_5 7)))
 (let (($x838 (= cell_5_5 6)))
 (let (($x8906 (= cell_5_5 5)))
 (let (($x2747 (= cell_5_5 4)))
 (let (($x1784 (= cell_5_5 3)))
 (let (($x2947 (= cell_5_5 2)))
 (let (($x8274 (= cell_5_5 1)))
 (or $x8274 $x2947 $x1784 $x2747 $x8906 $x838 $x878 $x3948 $x9526)))))))))))
(assert
 (let (($x6726 (= cell_6_5 9)))
 (let (($x3292 (= cell_6_5 8)))
 (let (($x6748 (= cell_6_5 7)))
 (let (($x7698 (= cell_6_5 6)))
 (let (($x3110 (= cell_6_5 5)))
 (let (($x806 (= cell_6_5 4)))
 (let (($x2364 (= cell_6_5 3)))
 (let (($x5282 (= cell_6_5 2)))
 (let (($x8155 (= cell_6_5 1)))
 (or $x8155 $x5282 $x2364 $x806 $x3110 $x7698 $x6748 $x3292 $x6726)))))))))))
(assert
 (let (($x9447 (= cell_7_5 1)))
 (or $x9447 (= cell_7_5 2) (= cell_7_5 3) (= cell_7_5 4) (= cell_7_5 5) (= cell_7_5 6) (= cell_7_5 7) (= cell_7_5 8) (= cell_7_5 9))))
(assert
 (let (($x5844 (= cell_8_5 9)))
 (let (($x71 (= cell_8_5 8)))
 (let (($x6798 (= cell_8_5 7)))
 (let (($x6572 (= cell_8_5 6)))
 (let (($x283 (= cell_8_5 5)))
 (let (($x7400 (= cell_8_5 4)))
 (let (($x4125 (= cell_8_5 3)))
 (let (($x7229 (= cell_8_5 2)))
 (let (($x8079 (= cell_8_5 1)))
 (or $x8079 $x7229 $x4125 $x7400 $x283 $x6572 $x6798 $x71 $x5844)))))))))))
(assert
 (let (($x3766 (= cell_9_5 1)))
 (or $x3766 (= cell_9_5 2) (= cell_9_5 3) (= cell_9_5 4) (= cell_9_5 5) (= cell_9_5 6) (= cell_9_5 7) (= cell_9_5 8) (= cell_9_5 9))))
(assert
 (let (($x6551 (= cell_1_6 9)))
 (let (($x9252 (= cell_1_6 8)))
 (let (($x7505 (= cell_1_6 7)))
 (let (($x2462 (= cell_1_6 6)))
 (let (($x1101 (= cell_1_6 5)))
 (let (($x3288 (= cell_1_6 4)))
 (let (($x3284 (= cell_1_6 3)))
 (let (($x481 (= cell_1_6 2)))
 (let (($x6407 (= cell_1_6 1)))
 (or $x6407 $x481 $x3284 $x3288 $x1101 $x2462 $x7505 $x9252 $x6551)))))))))))
(assert
 (let (($x7899 (= cell_2_6 9)))
 (let (($x7239 (= cell_2_6 8)))
 (let (($x7373 (= cell_2_6 7)))
 (let (($x6078 (= cell_2_6 6)))
 (let (($x9482 (= cell_2_6 5)))
 (let (($x2918 (= cell_2_6 4)))
 (let (($x6510 (= cell_2_6 3)))
 (let (($x9323 (= cell_2_6 2)))
 (let (($x2118 (= cell_2_6 1)))
 (or $x2118 $x9323 $x6510 $x2918 $x9482 $x6078 $x7373 $x7239 $x7899)))))))))))
(assert
 (let (($x995 (= cell_3_6 9)))
 (let (($x5136 (= cell_3_6 8)))
 (let (($x2578 (= cell_3_6 7)))
 (let (($x9359 (= cell_3_6 6)))
 (let (($x5658 (= cell_3_6 5)))
 (let (($x1785 (= cell_3_6 4)))
 (let (($x4653 (= cell_3_6 3)))
 (let (($x7487 (= cell_3_6 2)))
 (let (($x9715 (= cell_3_6 1)))
 (or $x9715 $x7487 $x4653 $x1785 $x5658 $x9359 $x2578 $x5136 $x995)))))))))))
(assert
 (let (($x4263 (= cell_4_6 1)))
 (or $x4263 (= cell_4_6 2) (= cell_4_6 3) (= cell_4_6 4) (= cell_4_6 5) (= cell_4_6 6) (= cell_4_6 7) (= cell_4_6 8) (= cell_4_6 9))))
(assert
 (let (($x5998 (= cell_5_6 9)))
 (let (($x3268 (= cell_5_6 8)))
 (let (($x5943 (= cell_5_6 7)))
 (let (($x7716 (= cell_5_6 6)))
 (let (($x6336 (= cell_5_6 5)))
 (let (($x8117 (= cell_5_6 4)))
 (let (($x3103 (= cell_5_6 3)))
 (let (($x872 (= cell_5_6 2)))
 (let (($x6792 (= cell_5_6 1)))
 (or $x6792 $x872 $x3103 $x8117 $x6336 $x7716 $x5943 $x3268 $x5998)))))))))))
(assert
 (let (($x8867 (= cell_6_6 1)))
 (or $x8867 (= cell_6_6 2) (= cell_6_6 3) (= cell_6_6 4) (= cell_6_6 5) (= cell_6_6 6) (= cell_6_6 7) (= cell_6_6 8) (= cell_6_6 9))))
(assert
 (let (($x5100 (= cell_7_6 1)))
 (or $x5100 (= cell_7_6 2) (= cell_7_6 3) (= cell_7_6 4) (= cell_7_6 5) (= cell_7_6 6) (= cell_7_6 7) (= cell_7_6 8) (= cell_7_6 9))))
(assert
 (let (($x1249 (= cell_8_6 9)))
 (let (($x3760 (= cell_8_6 8)))
 (let (($x5070 (= cell_8_6 7)))
 (let (($x1305 (= cell_8_6 6)))
 (let (($x3989 (= cell_8_6 5)))
 (let (($x121 (= cell_8_6 4)))
 (let (($x197 (= cell_8_6 3)))
 (let (($x2890 (= cell_8_6 2)))
 (let (($x1935 (= cell_8_6 1)))
 (or $x1935 $x2890 $x197 $x121 $x3989 $x1305 $x5070 $x3760 $x1249)))))))))))
(assert
 (let (($x10209 (= cell_9_6 1)))
 (or $x10209 (= cell_9_6 2) (= cell_9_6 3) (= cell_9_6 4) (= cell_9_6 5) (= cell_9_6 6) (= cell_9_6 7) (= cell_9_6 8) (= cell_9_6 9))))
(assert
 (let (($x9202 (= cell_1_7 9)))
 (let (($x4202 (= cell_1_7 8)))
 (let (($x1004 (= cell_1_7 7)))
 (let (($x7556 (= cell_1_7 6)))
 (let (($x3897 (= cell_1_7 5)))
 (let (($x8834 (= cell_1_7 4)))
 (let (($x7636 (= cell_1_7 3)))
 (let (($x1150 (= cell_1_7 2)))
 (let (($x4574 (= cell_1_7 1)))
 (or $x4574 $x1150 $x7636 $x8834 $x3897 $x7556 $x1004 $x4202 $x9202)))))))))))
(assert
 (let (($x7004 (= cell_2_7 9)))
 (let (($x7918 (= cell_2_7 8)))
 (let (($x512 (= cell_2_7 7)))
 (let (($x2987 (= cell_2_7 6)))
 (let (($x4971 (= cell_2_7 5)))
 (let (($x4084 (= cell_2_7 4)))
 (let (($x5274 (= cell_2_7 3)))
 (let (($x8472 (= cell_2_7 2)))
 (let (($x6876 (= cell_2_7 1)))
 (or $x6876 $x8472 $x5274 $x4084 $x4971 $x2987 $x512 $x7918 $x7004)))))))))))
(assert
 (let (($x6824 (= cell_3_7 1)))
 (or $x6824 (= cell_3_7 2) (= cell_3_7 3) (= cell_3_7 4) (= cell_3_7 5) (= cell_3_7 6) (= cell_3_7 7) (= cell_3_7 8) (= cell_3_7 9))))
(assert
 (let (($x5073 (= cell_4_7 9)))
 (let (($x9576 (= cell_4_7 8)))
 (let (($x6128 (= cell_4_7 7)))
 (let (($x669 (= cell_4_7 6)))
 (let (($x9788 (= cell_4_7 5)))
 (let (($x4407 (= cell_4_7 4)))
 (let (($x466 (= cell_4_7 3)))
 (let (($x4831 (= cell_4_7 2)))
 (let (($x2351 (= cell_4_7 1)))
 (or $x2351 $x4831 $x466 $x4407 $x9788 $x669 $x6128 $x9576 $x5073)))))))))))
(assert
 (let (($x3610 (= cell_5_7 9)))
 (let (($x2787 (= cell_5_7 8)))
 (let (($x5145 (= cell_5_7 7)))
 (let (($x7081 (= cell_5_7 6)))
 (let (($x269 (= cell_5_7 5)))
 (let (($x1479 (= cell_5_7 4)))
 (let (($x6162 (= cell_5_7 3)))
 (let (($x7790 (= cell_5_7 2)))
 (let (($x2662 (= cell_5_7 1)))
 (or $x2662 $x7790 $x6162 $x1479 $x269 $x7081 $x5145 $x2787 $x3610)))))))))))
(assert
 (let (($x630 (= cell_6_7 1)))
 (or $x630 (= cell_6_7 2) (= cell_6_7 3) (= cell_6_7 4) (= cell_6_7 5) (= cell_6_7 6) (= cell_6_7 7) (= cell_6_7 8) (= cell_6_7 9))))
(assert
 (let (($x3673 (= cell_7_7 9)))
 (let (($x7343 (= cell_7_7 8)))
 (let (($x8306 (= cell_7_7 7)))
 (let (($x7361 (= cell_7_7 6)))
 (let (($x1243 (= cell_7_7 5)))
 (let (($x5349 (= cell_7_7 4)))
 (let (($x3150 (= cell_7_7 3)))
 (let (($x1364 (= cell_7_7 2)))
 (let (($x7073 (= cell_7_7 1)))
 (or $x7073 $x1364 $x3150 $x5349 $x1243 $x7361 $x8306 $x7343 $x3673)))))))))))
(assert
 (let (($x220 (= cell_8_7 9)))
 (let (($x3910 (= cell_8_7 8)))
 (let (($x1921 (= cell_8_7 7)))
 (let (($x1296 (= cell_8_7 6)))
 (let (($x1308 (= cell_8_7 5)))
 (let (($x2417 (= cell_8_7 4)))
 (let (($x4278 (= cell_8_7 3)))
 (let (($x2620 (= cell_8_7 2)))
 (let (($x5900 (= cell_8_7 1)))
 (or $x5900 $x2620 $x4278 $x2417 $x1308 $x1296 $x1921 $x3910 $x220)))))))))))
(assert
 (let (($x1716 (= cell_9_7 1)))
 (or $x1716 (= cell_9_7 2) (= cell_9_7 3) (= cell_9_7 4) (= cell_9_7 5) (= cell_9_7 6) (= cell_9_7 7) (= cell_9_7 8) (= cell_9_7 9))))
(assert
 (let (($x2766 (= cell_1_8 9)))
 (let (($x9315 (= cell_1_8 8)))
 (let (($x516 (= cell_1_8 7)))
 (let (($x1290 (= cell_1_8 6)))
 (let (($x8484 (= cell_1_8 5)))
 (let (($x6462 (= cell_1_8 4)))
 (let (($x6946 (= cell_1_8 3)))
 (let (($x9718 (= cell_1_8 2)))
 (let (($x5323 (= cell_1_8 1)))
 (or $x5323 $x9718 $x6946 $x6462 $x8484 $x1290 $x516 $x9315 $x2766)))))))))))
(assert
 (let (($x2607 (= cell_2_8 9)))
 (let (($x4416 (= cell_2_8 8)))
 (let (($x9481 (= cell_2_8 7)))
 (let (($x9022 (= cell_2_8 6)))
 (let (($x8052 (= cell_2_8 5)))
 (let (($x1626 (= cell_2_8 4)))
 (let (($x7583 (= cell_2_8 3)))
 (let (($x7534 (= cell_2_8 2)))
 (let (($x10191 (= cell_2_8 1)))
 (or $x10191 $x7534 $x7583 $x1626 $x8052 $x9022 $x9481 $x4416 $x2607)))))))))))
(assert
 (let (($x6410 (= cell_3_8 9)))
 (let (($x1727 (= cell_3_8 8)))
 (let (($x6222 (= cell_3_8 7)))
 (let (($x5402 (= cell_3_8 6)))
 (let (($x4228 (= cell_3_8 5)))
 (let (($x9732 (= cell_3_8 4)))
 (let (($x401 (= cell_3_8 3)))
 (let (($x8839 (= cell_3_8 2)))
 (let (($x9624 (= cell_3_8 1)))
 (or $x9624 $x8839 $x401 $x9732 $x4228 $x5402 $x6222 $x1727 $x6410)))))))))))
(assert
 (let (($x5654 (= cell_4_8 9)))
 (let (($x8857 (= cell_4_8 8)))
 (let (($x9969 (= cell_4_8 7)))
 (let (($x6355 (= cell_4_8 6)))
 (let (($x3126 (= cell_4_8 5)))
 (let (($x688 (= cell_4_8 4)))
 (let (($x6709 (= cell_4_8 3)))
 (let (($x7954 (= cell_4_8 2)))
 (let (($x9537 (= cell_4_8 1)))
 (or $x9537 $x7954 $x6709 $x688 $x3126 $x6355 $x9969 $x8857 $x5654)))))))))))
(assert
 (let (($x5379 (= cell_5_8 9)))
 (let (($x3785 (= cell_5_8 8)))
 (let (($x7059 (= cell_5_8 7)))
 (let (($x4877 (= cell_5_8 6)))
 (let (($x8037 (= cell_5_8 5)))
 (let (($x6616 (= cell_5_8 4)))
 (let (($x2554 (= cell_5_8 3)))
 (let (($x5417 (= cell_5_8 2)))
 (let (($x1796 (= cell_5_8 1)))
 (or $x1796 $x5417 $x2554 $x6616 $x8037 $x4877 $x7059 $x3785 $x5379)))))))))))
(assert
 (let (($x1931 (= cell_6_8 9)))
 (let (($x5469 (= cell_6_8 8)))
 (let (($x6711 (= cell_6_8 7)))
 (let (($x9324 (= cell_6_8 6)))
 (let (($x9408 (= cell_6_8 5)))
 (let (($x2397 (= cell_6_8 4)))
 (let (($x757 (= cell_6_8 3)))
 (let (($x9106 (= cell_6_8 2)))
 (let (($x3094 (= cell_6_8 1)))
 (or $x3094 $x9106 $x757 $x2397 $x9408 $x9324 $x6711 $x5469 $x1931)))))))))))
(assert
 (let (($x5955 (= cell_7_8 9)))
 (let (($x6482 (= cell_7_8 8)))
 (let (($x7488 (= cell_7_8 7)))
 (let (($x9743 (= cell_7_8 6)))
 (let (($x3039 (= cell_7_8 5)))
 (let (($x9919 (= cell_7_8 4)))
 (let (($x189 (= cell_7_8 3)))
 (let (($x6382 (= cell_7_8 2)))
 (let (($x2815 (= cell_7_8 1)))
 (or $x2815 $x6382 $x189 $x9919 $x3039 $x9743 $x7488 $x6482 $x5955)))))))))))
(assert
 (let (($x1033 (= cell_8_8 1)))
 (or $x1033 (= cell_8_8 2) (= cell_8_8 3) (= cell_8_8 4) (= cell_8_8 5) (= cell_8_8 6) (= cell_8_8 7) (= cell_8_8 8) (= cell_8_8 9))))
(assert
 (let (($x5040 (= cell_9_8 1)))
 (or $x5040 (= cell_9_8 2) (= cell_9_8 3) (= cell_9_8 4) (= cell_9_8 5) (= cell_9_8 6) (= cell_9_8 7) (= cell_9_8 8) (= cell_9_8 9))))
(assert
 (let (($x1548 (= cell_1_9 9)))
 (let (($x2319 (= cell_1_9 8)))
 (let (($x2352 (= cell_1_9 7)))
 (let (($x862 (= cell_1_9 6)))
 (let (($x9941 (= cell_1_9 5)))
 (let (($x6987 (= cell_1_9 4)))
 (let (($x2142 (= cell_1_9 3)))
 (let (($x5973 (= cell_1_9 2)))
 (let (($x5802 (= cell_1_9 1)))
 (or $x5802 $x5973 $x2142 $x6987 $x9941 $x862 $x2352 $x2319 $x1548)))))))))))
(assert
 (let (($x5148 (= cell_2_9 9)))
 (let (($x4906 (= cell_2_9 8)))
 (let (($x7385 (= cell_2_9 7)))
 (let (($x2850 (= cell_2_9 6)))
 (let (($x6906 (= cell_2_9 5)))
 (let (($x9490 (= cell_2_9 4)))
 (let (($x2781 (= cell_2_9 3)))
 (let (($x312 (= cell_2_9 2)))
 (let (($x4537 (= cell_2_9 1)))
 (or $x4537 $x312 $x2781 $x9490 $x6906 $x2850 $x7385 $x4906 $x5148)))))))))))
(assert
 (let (($x1776 (= cell_3_9 9)))
 (let (($x3695 (= cell_3_9 8)))
 (let (($x8995 (= cell_3_9 7)))
 (let (($x10218 (= cell_3_9 6)))
 (let (($x7030 (= cell_3_9 5)))
 (let (($x10073 (= cell_3_9 4)))
 (let (($x8126 (= cell_3_9 3)))
 (let (($x9752 (= cell_3_9 2)))
 (let (($x9665 (= cell_3_9 1)))
 (or $x9665 $x9752 $x8126 $x10073 $x7030 $x10218 $x8995 $x3695 $x1776)))))))))))
(assert
 (let (($x3624 (= cell_4_9 9)))
 (let (($x1363 (= cell_4_9 8)))
 (let (($x6739 (= cell_4_9 7)))
 (let (($x2347 (= cell_4_9 6)))
 (let (($x9981 (= cell_4_9 5)))
 (let (($x1825 (= cell_4_9 4)))
 (let (($x9293 (= cell_4_9 3)))
 (let (($x8077 (= cell_4_9 2)))
 (let (($x9957 (= cell_4_9 1)))
 (or $x9957 $x8077 $x9293 $x1825 $x9981 $x2347 $x6739 $x1363 $x3624)))))))))))
(assert
 (let (($x5321 (= cell_5_9 1)))
 (or $x5321 (= cell_5_9 2) (= cell_5_9 3) (= cell_5_9 4) (= cell_5_9 5) (= cell_5_9 6) (= cell_5_9 7) (= cell_5_9 8) (= cell_5_9 9))))
(assert
 (let (($x5878 (= cell_6_9 1)))
 (or $x5878 (= cell_6_9 2) (= cell_6_9 3) (= cell_6_9 4) (= cell_6_9 5) (= cell_6_9 6) (= cell_6_9 7) (= cell_6_9 8) (= cell_6_9 9))))
(assert
 (let (($x2877 (= cell_7_9 9)))
 (let (($x8768 (= cell_7_9 8)))
 (let (($x15 (= cell_7_9 7)))
 (let (($x576 (= cell_7_9 6)))
 (let (($x3160 (= cell_7_9 5)))
 (let (($x8551 (= cell_7_9 4)))
 (let (($x5352 (= cell_7_9 3)))
 (let (($x8715 (= cell_7_9 2)))
 (let (($x8303 (= cell_7_9 1)))
 (or $x8303 $x8715 $x5352 $x8551 $x3160 $x576 $x15 $x8768 $x2877)))))))))))
(assert
 (let (($x4720 (= cell_8_9 1)))
 (or $x4720 (= cell_8_9 2) (= cell_8_9 3) (= cell_8_9 4) (= cell_8_9 5) (= cell_8_9 6) (= cell_8_9 7) (= cell_8_9 8) (= cell_8_9 9))))
(assert
 (let (($x2313 (= cell_9_9 1)))
 (or $x2313 (= cell_9_9 2) (= cell_9_9 3) (= cell_9_9 4) (= cell_9_9 5) (= cell_9_9 6) (= cell_9_9 7) (= cell_9_9 8) (= cell_9_9 9))))
(assert
 (and (distinct cell_1_1 cell_1_2 cell_1_3 cell_1_4 cell_1_5 cell_1_6 cell_1_7 cell_1_8 cell_1_9) true))
(assert
 (and (distinct cell_2_1 cell_2_2 cell_2_3 cell_2_4 cell_2_5 cell_2_6 cell_2_7 cell_2_8 cell_2_9) true))
(assert
 (and (distinct cell_3_1 cell_3_2 cell_3_3 cell_3_4 cell_3_5 cell_3_6 cell_3_7 cell_3_8 cell_3_9) true))
(assert
 (and (distinct cell_4_1 cell_4_2 cell_4_3 cell_4_4 cell_4_5 cell_4_6 cell_4_7 cell_4_8 cell_4_9) true))
(assert
 (and (distinct cell_5_1 cell_5_2 cell_5_3 cell_5_4 cell_5_5 cell_5_6 cell_5_7 cell_5_8 cell_5_9) true))
(assert
 (and (distinct cell_6_1 cell_6_2 cell_6_3 cell_6_4 cell_6_5 cell_6_6 cell_6_7 cell_6_8 cell_6_9) true))
(assert
 (and (distinct cell_7_1 cell_7_2 cell_7_3 cell_7_4 cell_7_5 cell_7_6 cell_7_7 cell_7_8 cell_7_9) true))
(assert
 (and (distinct cell_8_1 cell_8_2 cell_8_3 cell_8_4 cell_8_5 cell_8_6 cell_8_7 cell_8_8 cell_8_9) true))
(assert
 (and (distinct cell_9_1 cell_9_2 cell_9_3 cell_9_4 cell_9_5 cell_9_6 cell_9_7 cell_9_8 cell_9_9) true))
(assert
 (and (distinct cell_1_1 cell_2_1 cell_3_1 cell_4_1 cell_5_1 cell_6_1 cell_7_1 cell_8_1 cell_9_1) true))
(assert
 (and (distinct cell_1_2 cell_2_2 cell_3_2 cell_4_2 cell_5_2 cell_6_2 cell_7_2 cell_8_2 cell_9_2) true))
(assert
 (and (distinct cell_1_3 cell_2_3 cell_3_3 cell_4_3 cell_5_3 cell_6_3 cell_7_3 cell_8_3 cell_9_3) true))
(assert
 (and (distinct cell_1_4 cell_2_4 cell_3_4 cell_4_4 cell_5_4 cell_6_4 cell_7_4 cell_8_4 cell_9_4) true))
(assert
 (and (distinct cell_1_5 cell_2_5 cell_3_5 cell_4_5 cell_5_5 cell_6_5 cell_7_5 cell_8_5 cell_9_5) true))
(assert
 (and (distinct cell_1_6 cell_2_6 cell_3_6 cell_4_6 cell_5_6 cell_6_6 cell_7_6 cell_8_6 cell_9_6) true))
(assert
 (and (distinct cell_1_7 cell_2_7 cell_3_7 cell_4_7 cell_5_7 cell_6_7 cell_7_7 cell_8_7 cell_9_7) true))
(assert
 (and (distinct cell_1_8 cell_2_8 cell_3_8 cell_4_8 cell_5_8 cell_6_8 cell_7_8 cell_8_8 cell_9_8) true))
(assert
 (and (distinct cell_1_9 cell_2_9 cell_3_9 cell_4_9 cell_5_9 cell_6_9 cell_7_9 cell_8_9 cell_9_9) true))
(assert
 (and (distinct cell_1_1 cell_1_2 cell_1_3 cell_2_1 cell_2_2 cell_2_3 cell_3_1 cell_3_2 cell_3_3) true))
(assert
 (and (distinct cell_1_4 cell_1_5 cell_1_6 cell_2_4 cell_2_5 cell_2_6 cell_3_4 cell_3_5 cell_3_6) true))
(assert
 (and (distinct cell_1_7 cell_1_8 cell_1_9 cell_2_7 cell_2_8 cell_2_9 cell_3_7 cell_3_8 cell_3_9) true))
(assert
 (and (distinct cell_4_1 cell_4_2 cell_4_3 cell_5_1 cell_5_2 cell_5_3 cell_6_1 cell_6_2 cell_6_3) true))
(assert
 (and (distinct cell_4_4 cell_4_5 cell_4_6 cell_5_4 cell_5_5 cell_5_6 cell_6_4 cell_6_5 cell_6_6) true))
(assert
 (and (distinct cell_4_7 cell_4_8 cell_4_9 cell_5_7 cell_5_8 cell_5_9 cell_6_7 cell_6_8 cell_6_9) true))
(assert
 (and (distinct cell_7_1 cell_7_2 cell_7_3 cell_8_1 cell_8_2 cell_8_3 cell_9_1 cell_9_2 cell_9_3) true))
(assert
 (and (distinct cell_7_4 cell_7_5 cell_7_6 cell_8_4 cell_8_5 cell_8_6 cell_9_4 cell_9_5 cell_9_6) true))
(assert
 (and (distinct cell_7_7 cell_7_8 cell_7_9 cell_8_7 cell_8_8 cell_8_9 cell_9_7 cell_9_8 cell_9_9) true))
(assert
 (let (($x2599 (and (distinct cell_5_9 cell_6_8 cell_7_7 cell_8_6) true)))
 (let (($x790 (and (distinct cell_2_9 cell_3_8 cell_4_7 cell_5_6 cell_6_5 cell_7_4 cell_8_3 cell_9_2) true)))
 (let (($x5907 (and (distinct cell_1_8 cell_2_7 cell_3_6 cell_4_5 cell_5_4 cell_6_3 cell_7_2 cell_8_1) true)))
 (let (($x3776 (and (distinct cell_1_5 cell_2_4 cell_3_3 cell_4_2) true)))
 (let (($x4088 (and (distinct cell_5_1 cell_6_2 cell_7_3 cell_8_4) true)))
 (let (($x6558 (and (distinct cell_2_1 cell_3_2 cell_4_3 cell_5_4 cell_6_5 cell_7_6 cell_8_7 cell_9_8) true)))
 (let (($x1898 (and (distinct cell_1_2 cell_2_3 cell_3_4 cell_4_5 cell_5_6 cell_6_7 cell_7_8 cell_8_9) true)))
 (let (($x10170 (and (distinct cell_1_5 cell_2_6 cell_3_7 cell_4_8) true)))
 (and $x10170 $x1898 $x6558 $x4088 $x3776 $x5907 $x790 $x2599))))))))))
(assert
 (and (distinct cell_2_8 2) true))
(check-sat)
